65
1 0 4
2 0 2
2 1 1
3 0 5
3 1 1
3 2 5
4 0 4
4 1 4
4 2 5
4 3 2
5 0 1
5 1 4
5 2 5
5 3 3
5 4 3
6 0 3
6 1 1
6 2 2
6 3 4
6 4 2
6 5 5
7 0 3
7 1 3
7 2 1
7 3 1
7 4 4
7 5 3
7 6 3
8 0 3
8 1 3
8 2 5
8 3 5
8 4 4
8 5 3
8 6 2
8 7 5
9 0 5
9 1 1
9 2 5
9 3 3
9 4 4
9 5 5
9 6 2
9 7 3
9 8 1
10 0 3
10 1 4
10 2 2
10 3 1
10 4 3
10 5 5
10 6 1
10 7 3
10 8 2
10 9 5
11 0 3
11 1 4
11 2 5
11 3 3
11 4 3
11 5 3
11 6 3
11 7 3
11 8 3
11 9 2
11 10 5
12 0 2
12 1 3
12 2 5
12 3 2
12 4 4
12 5 4
12 6 4
12 7 1
12 8 4
12 9 1
12 10 5
12 11 5
13 0 4
13 1 3
13 2 1
13 3 4
13 4 4
13 5 1
13 6 1
13 7 5
13 8 1
13 9 2
13 10 2
13 11 5
13 12 1
14 0 1
14 1 5
14 2 1
14 3 4
14 4 5
14 5 4
14 6 3
14 7 4
14 8 4
14 9 1
14 10 3
14 11 1
14 12 1
14 13 4
15 0 2
15 1 4
15 2 3
15 3 2
15 4 5
15 5 3
15 6 4
15 7 4
15 8 1
15 9 4
15 10 5
15 11 3
15 12 4
15 13 3
15 14 4
16 0 2
16 1 1
16 2 4
16 3 2
16 4 4
16 5 5
16 6 3
16 7 1
16 8 5
16 9 3
16 10 1
16 11 1
16 12 3
16 13 2
16 14 4
16 15 4
17 0 3
17 1 3
17 2 4
17 3 2
17 4 5
17 5 4
17 6 2
17 7 2
17 8 1
17 9 5
17 10 3
17 11 3
17 12 2
17 13 5
17 14 2
17 15 2
17 16 1
18 0 3
18 1 1
18 2 1
18 3 5
18 4 3
18 5 4
18 6 4
18 7 2
18 8 4
18 9 4
18 10 3
18 11 4
18 12 5
18 13 2
18 14 2
18 15 4
18 16 2
18 17 1
19 0 1
19 1 1
19 2 5
19 3 2
19 4 3
19 5 5
19 6 2
19 7 2
19 8 2
19 9 1
19 10 3
19 11 5
19 12 5
19 13 5
19 14 4
19 15 1
19 16 3
19 17 1
19 18 1
20 0 4
20 1 4
20 2 2
20 3 1
20 4 2
20 5 5
20 6 1
20 7 5
20 8 4
20 9 3
20 10 3
20 11 4
20 12 2
20 13 1
20 14 4
20 15 2
20 16 1
20 17 4
20 18 2
20 19 3
21 0 2
21 1 4
21 2 1
21 3 1
21 4 3
21 5 1
21 6 1
21 7 5
21 8 3
21 9 4
21 10 3
21 11 3
21 12 3
21 13 2
21 14 5
21 15 3
21 16 2
21 17 1
21 18 1
21 19 5
21 20 4
22 0 2
22 1 5
22 2 4
22 3 4
22 4 3
22 5 4
22 6 5
22 7 1
22 8 1
22 9 5
22 10 2
22 11 1
22 12 5
22 13 4
22 14 3
22 15 2
22 16 3
22 17 3
22 18 1
22 19 2
22 20 3
22 21 1
23 0 2
23 1 2
23 2 5
23 3 2
23 4 5
23 5 1
23 6 1
23 7 2
23 8 5
23 9 4
23 10 5
23 11 3
23 12 3
23 13 5
23 14 2
23 15 3
23 16 5
23 17 2
23 18 2
23 19 5
23 20 2
23 21 2
23 22 5
24 0 4
24 1 2
24 2 3
24 3 5
24 4 4
24 5 4
24 6 2
24 7 2
24 8 4
24 9 1
24 10 5
24 11 4
24 12 1
24 13 2
24 14 4
24 15 5
24 16 3
24 17 4
24 18 1
24 19 5
24 20 5
24 21 1
24 22 1
24 23 4
25 0 2
25 1 5
25 2 5
25 3 1
25 4 5
25 5 5
25 6 3
25 7 3
25 8 2
25 9 3
25 10 2
25 11 4
25 12 4
25 13 4
25 14 3
25 15 4
25 16 1
25 17 5
25 18 4
25 19 4
25 20 3
25 21 1
25 22 2
25 23 3
25 24 1
26 0 4
26 1 2
26 2 5
26 3 3
26 4 1
26 5 3
26 6 2
26 7 1
26 8 1
26 9 2
26 10 3
26 11 2
26 12 3
26 13 3
26 14 1
26 15 4
26 16 1
26 17 5
26 18 2
26 19 2
26 20 2
26 21 2
26 22 2
26 23 5
26 24 4
26 25 1
27 0 1
27 1 3
27 2 4
27 3 4
27 4 3
27 5 1
27 6 2
27 7 4
27 8 2
27 9 5
27 10 2
27 11 5
27 12 5
27 13 2
27 14 2
27 15 4
27 16 4
27 17 2
27 18 3
27 19 5
27 20 5
27 21 5
27 22 4
27 23 3
27 24 5
27 25 5
27 26 2
28 0 1
28 1 2
28 2 4
28 3 2
28 4 3
28 5 5
28 6 1
28 7 1
28 8 5
28 9 3
28 10 2
28 11 4
28 12 4
28 13 3
28 14 2
28 15 4
28 16 5
28 17 5
28 18 3
28 19 2
28 20 5
28 21 4
28 22 3
28 23 1
28 24 5
28 25 5
28 26 2
28 27 1
29 0 1
29 1 5
29 2 2
29 3 1
29 4 1
29 5 3
29 6 5
29 7 4
29 8 2
29 9 1
29 10 1
29 11 4
29 12 3
29 13 3
29 14 3
29 15 2
29 16 3
29 17 5
29 18 5
29 19 1
29 20 3
29 21 4
29 22 4
29 23 3
29 24 5
29 25 3
29 26 4
29 27 1
29 28 1
30 0 1
30 1 5
30 2 5
30 3 5
30 4 1
30 5 4
30 6 4
30 7 1
30 8 1
30 9 1
30 10 1
30 11 5
30 12 3
30 13 2
30 14 4
30 15 1
30 16 2
30 17 3
30 18 1
30 19 3
30 20 4
30 21 5
30 22 4
30 23 5
30 24 1
30 25 1
30 26 2
30 27 5
30 28 2
30 29 5
31 0 1
31 1 3
31 2 3
31 3 2
31 4 2
31 5 3
31 6 4
31 7 1
31 8 1
31 9 2
31 10 3
31 11 5
31 12 4
31 13 4
31 14 4
31 15 3
31 16 1
31 17 1
31 18 5
31 19 1
31 20 4
31 21 3
31 22 1
31 23 5
31 24 5
31 25 1
31 26 1
31 27 5
31 28 2
31 29 4
31 30 2
32 0 2
32 1 1
32 2 3
32 3 5
32 4 2
32 5 2
32 6 3
32 7 4
32 8 4
32 9 3
32 10 5
32 11 4
32 12 4
32 13 4
32 14 5
32 15 4
32 16 4
32 17 2
32 18 1
32 19 1
32 20 5
32 21 5
32 22 4
32 23 3
32 24 2
32 25 3
32 26 5
32 27 4
32 28 4
32 29 5
32 30 4
32 31 1
33 0 5
33 1 4
33 2 5
33 3 4
33 4 4
33 5 5
33 6 4
33 7 3
33 8 2
33 9 4
33 10 3
33 11 3
33 12 4
33 13 3
33 14 2
33 15 5
33 16 5
33 17 2
33 18 3
33 19 1
33 20 2
33 21 3
33 22 4
33 23 4
33 24 5
33 25 3
33 26 4
33 27 2
33 28 4
33 29 2
33 30 4
33 31 1
33 32 5
34 0 5
34 1 2
34 2 2
34 3 5
34 4 1
34 5 4
34 6 2
34 7 1
34 8 4
34 9 5
34 10 5
34 11 1
34 12 4
34 13 4
34 14 4
34 15 1
34 16 3
34 17 1
34 18 2
34 19 5
34 20 4
34 21 2
34 22 2
34 23 3
34 24 5
34 25 1
34 26 3
34 27 4
34 28 4
34 29 1
34 30 5
34 31 4
34 32 3
34 33 1
35 0 2
35 1 1
35 2 3
35 3 3
35 4 3
35 5 2
35 6 3
35 7 4
35 8 1
35 9 2
35 10 5
35 11 5
35 12 1
35 13 3
35 14 4
35 15 5
35 16 3
35 17 1
35 18 2
35 19 5
35 20 4
35 21 5
35 22 3
35 23 5
35 24 1
35 25 4
35 26 3
35 27 2
35 28 5
35 29 3
35 30 1
35 31 4
35 32 4
35 33 2
35 34 4
36 0 2
36 1 3
36 2 5
36 3 1
36 4 2
36 5 5
36 6 2
36 7 2
36 8 2
36 9 4
36 10 4
36 11 2
36 12 1
36 13 5
36 14 4
36 15 4
36 16 1
36 17 2
36 18 3
36 19 3
36 20 4
36 21 5
36 22 1
36 23 1
36 24 3
36 25 5
36 26 4
36 27 4
36 28 5
36 29 1
36 30 5
36 31 4
36 32 2
36 33 4
36 34 5
36 35 3
37 0 2
37 1 5
37 2 4
37 3 2
37 4 1
37 5 3
37 6 3
37 7 4
37 8 2
37 9 1
37 10 4
37 11 1
37 12 3
37 13 3
37 14 1
37 15 3
37 16 3
37 17 3
37 18 1
37 19 3
37 20 3
37 21 1
37 22 4
37 23 5
37 24 2
37 25 4
37 26 3
37 27 1
37 28 1
37 29 5
37 30 2
37 31 3
37 32 4
37 33 3
37 34 3
37 35 5
37 36 1
38 0 4
38 1 5
38 2 5
38 3 4
38 4 5
38 5 4
38 6 4
38 7 5
38 8 4
38 9 5
38 10 3
38 11 3
38 12 2
38 13 4
38 14 3
38 15 1
38 16 3
38 17 2
38 18 5
38 19 4
38 20 4
38 21 3
38 22 2
38 23 2
38 24 5
38 25 1
38 26 4
38 27 3
38 28 5
38 29 3
38 30 4
38 31 3
38 32 1
38 33 5
38 34 2
38 35 5
38 36 4
38 37 4
39 0 1
39 1 5
39 2 2
39 3 4
39 4 5
39 5 1
39 6 1
39 7 1
39 8 4
39 9 4
39 10 1
39 11 1
39 12 4
39 13 4
39 14 3
39 15 2
39 16 1
39 17 1
39 18 5
39 19 3
39 20 1
39 21 3
39 22 1
39 23 2
39 24 2
39 25 1
39 26 3
39 27 2
39 28 5
39 29 1
39 30 2
39 31 3
39 32 3
39 33 2
39 34 1
39 35 3
39 36 5
39 37 1
39 38 4
40 0 1
40 1 2
40 2 5
40 3 1
40 4 5
40 5 5
40 6 1
40 7 1
40 8 1
40 9 3
40 10 5
40 11 3
40 12 4
40 13 3
40 14 5
40 15 3
40 16 5
40 17 4
40 18 4
40 19 5
40 20 3
40 21 3
40 22 4
40 23 3
40 24 2
40 25 3
40 26 3
40 27 1
40 28 4
40 29 3
40 30 2
40 31 4
40 32 5
40 33 2
40 34 2
40 35 5
40 36 3
40 37 4
40 38 2
40 39 2
41 0 2
41 1 1
41 2 5
41 3 1
41 4 1
41 5 1
41 6 3
41 7 1
41 8 3
41 9 4
41 10 3
41 11 2
41 12 4
41 13 3
41 14 1
41 15 1
41 16 2
41 17 1
41 18 3
41 19 4
41 20 4
41 21 5
41 22 1
41 23 5
41 24 1
41 25 4
41 26 5
41 27 2
41 28 4
41 29 1
41 30 4
41 31 4
41 32 4
41 33 5
41 34 3
41 35 1
41 36 2
41 37 1
41 38 4
41 39 3
41 40 2
42 0 2
42 1 4
42 2 2
42 3 3
42 4 5
42 5 1
42 6 2
42 7 5
42 8 4
42 9 5
42 10 4
42 11 4
42 12 3
42 13 3
42 14 3
42 15 4
42 16 3
42 17 5
42 18 1
42 19 4
42 20 2
42 21 2
42 22 5
42 23 1
42 24 4
42 25 5
42 26 1
42 27 4
42 28 5
42 29 5
42 30 5
42 31 1
42 32 4
42 33 5
42 34 4
42 35 4
42 36 5
42 37 2
42 38 4
42 39 2
42 40 3
42 41 1
43 0 2
43 1 2
43 2 4
43 3 4
43 4 3
43 5 5
43 6 4
43 7 2
43 8 1
43 9 2
43 10 4
43 11 4
43 12 3
43 13 1
43 14 1
43 15 4
43 16 4
43 17 5
43 18 5
43 19 5
43 20 2
43 21 3
43 22 2
43 23 5
43 24 5
43 25 4
43 26 2
43 27 4
43 28 5
43 29 1
43 30 2
43 31 2
43 32 2
43 33 5
43 34 3
43 35 2
43 36 3
43 37 5
43 38 5
43 39 5
43 40 1
43 41 1
43 42 1
44 0 5
44 1 2
44 2 2
44 3 2
44 4 5
44 5 5
44 6 1
44 7 2
44 8 4
44 9 1
44 10 4
44 11 1
44 12 2
44 13 4
44 14 2
44 15 3
44 16 5
44 17 3
44 18 5
44 19 2
44 20 5
44 21 2
44 22 3
44 23 1
44 24 5
44 25 3
44 26 1
44 27 2
44 28 3
44 29 4
44 30 1
44 31 2
44 32 4
44 33 2
44 34 5
44 35 5
44 36 5
44 37 2
44 38 5
44 39 2
44 40 2
44 41 5
44 42 1
44 43 3
45 0 2
45 1 5
45 2 5
45 3 2
45 4 1
45 5 1
45 6 4
45 7 1
45 8 3
45 9 2
45 10 4
45 11 5
45 12 4
45 13 5
45 14 4
45 15 5
45 16 3
45 17 1
45 18 3
45 19 3
45 20 3
45 21 2
45 22 4
45 23 1
45 24 1
45 25 4
45 26 3
45 27 3
45 28 3
45 29 3
45 30 5
45 31 2
45 32 5
45 33 1
45 34 4
45 35 5
45 36 1
45 37 2
45 38 5
45 39 4
45 40 4
45 41 3
45 42 2
45 43 3
45 44 4
46 0 4
46 1 5
46 2 5
46 3 5
46 4 1
46 5 3
46 6 2
46 7 4
46 8 5
46 9 4
46 10 3
46 11 4
46 12 5
46 13 3
46 14 4
46 15 2
46 16 1
46 17 1
46 18 1
46 19 4
46 20 4
46 21 5
46 22 1
46 23 2
46 24 2
46 25 2
46 26 5
46 27 3
46 28 3
46 29 5
46 30 2
46 31 3
46 32 5
46 33 3
46 34 1
46 35 1
46 36 3
46 37 1
46 38 2
46 39 1
46 40 5
46 41 4
46 42 4
46 43 4
46 44 2
46 45 3
47 0 3
47 1 5
47 2 1
47 3 4
47 4 5
47 5 3
47 6 2
47 7 3
47 8 1
47 9 2
47 10 2
47 11 2
47 12 2
47 13 2
47 14 2
47 15 1
47 16 4
47 17 3
47 18 1
47 19 1
47 20 4
47 21 1
47 22 5
47 23 2
47 24 3
47 25 1
47 26 4
47 27 5
47 28 2
47 29 1
47 30 1
47 31 5
47 32 4
47 33 4
47 34 1
47 35 4
47 36 4
47 37 4
47 38 3
47 39 3
47 40 4
47 41 2
47 42 2
47 43 4
47 44 1
47 45 5
47 46 2
48 0 3
48 1 5
48 2 3
48 3 4
48 4 4
48 5 4
48 6 1
48 7 5
48 8 2
48 9 3
48 10 4
48 11 5
48 12 1
48 13 4
48 14 2
48 15 2
48 16 4
48 17 4
48 18 5
48 19 3
48 20 2
48 21 5
48 22 1
48 23 1
48 24 2
48 25 1
48 26 4
48 27 4
48 28 1
48 29 1
48 30 3
48 31 5
48 32 1
48 33 4
48 34 1
48 35 5
48 36 5
48 37 2
48 38 4
48 39 5
48 40 3
48 41 1
48 42 5
48 43 1
48 44 2
48 45 1
48 46 5
48 47 2
49 0 2
49 1 4
49 2 1
49 3 1
49 4 4
49 5 4
49 6 2
49 7 5
49 8 1
49 9 3
49 10 4
49 11 4
49 12 5
49 13 3
49 14 1
49 15 4
49 16 4
49 17 1
49 18 2
49 19 5
49 20 5
49 21 2
49 22 2
49 23 3
49 24 4
49 25 4
49 26 2
49 27 2
49 28 2
49 29 4
49 30 4
49 31 3
49 32 3
49 33 5
49 34 2
49 35 2
49 36 2
49 37 1
49 38 1
49 39 2
49 40 2
49 41 4
49 42 4
49 43 1
49 44 2
49 45 5
49 46 5
49 47 5
49 48 4
50 0 4
50 1 4
50 2 4
50 3 2
50 4 2
50 5 4
50 6 4
50 7 1
50 8 5
50 9 2
50 10 2
50 11 2
50 12 4
50 13 3
50 14 5
50 15 4
50 16 4
50 17 4
50 18 2
50 19 3
50 20 4
50 21 3
50 22 4
50 23 1
50 24 5
50 25 2
50 26 3
50 27 5
50 28 4
50 29 2
50 30 1
50 31 4
50 32 2
50 33 4
50 34 3
50 35 1
50 36 5
50 37 2
50 38 1
50 39 5
50 40 1
50 41 4
50 42 5
50 43 1
50 44 2
50 45 5
50 46 5
50 47 1
50 48 4
50 49 5
51 0 4
51 1 5
51 2 3
51 3 2
51 4 1
51 5 4
51 6 3
51 7 3
51 8 2
51 9 1
51 10 4
51 11 3
51 12 2
51 13 3
51 14 3
51 15 3
51 16 4
51 17 5
51 18 4
51 19 4
51 20 2
51 21 2
51 22 4
51 23 5
51 24 4
51 25 3
51 26 1
51 27 3
51 28 4
51 29 2
51 30 5
51 31 3
51 32 2
51 33 3
51 34 2
51 35 1
51 36 2
51 37 4
51 38 2
51 39 2
51 40 2
51 41 4
51 42 2
51 43 1
51 44 4
51 45 4
51 46 4
51 47 3
51 48 5
51 49 3
51 50 5
52 0 5
52 1 1
52 2 5
52 3 4
52 4 4
52 5 5
52 6 5
52 7 3
52 8 2
52 9 5
52 10 2
52 11 3
52 12 5
52 13 4
52 14 4
52 15 5
52 16 5
52 17 1
52 18 2
52 19 1
52 20 3
52 21 2
52 22 4
52 23 1
52 24 4
52 25 1
52 26 3
52 27 5
52 28 1
52 29 2
52 30 5
52 31 4
52 32 1
52 33 2
52 34 5
52 35 3
52 36 1
52 37 3
52 38 4
52 39 5
52 40 2
52 41 5
52 42 3
52 43 2
52 44 1
52 45 3
52 46 2
52 47 1
52 48 1
52 49 2
52 50 4
52 51 4
53 0 1
53 1 2
53 2 3
53 3 5
53 4 4
53 5 1
53 6 1
53 7 4
53 8 1
53 9 5
53 10 2
53 11 3
53 12 2
53 13 4
53 14 1
53 15 4
53 16 1
53 17 5
53 18 5
53 19 1
53 20 1
53 21 2
53 22 1
53 23 3
53 24 1
53 25 2
53 26 3
53 27 3
53 28 3
53 29 4
53 30 5
53 31 5
53 32 5
53 33 5
53 34 3
53 35 1
53 36 3
53 37 3
53 38 4
53 39 1
53 40 1
53 41 3
53 42 3
53 43 4
53 44 4
53 45 4
53 46 3
53 47 4
53 48 2
53 49 5
53 50 1
53 51 3
53 52 2
54 0 2
54 1 4
54 2 5
54 3 5
54 4 5
54 5 1
54 6 3
54 7 3
54 8 2
54 9 3
54 10 5
54 11 5
54 12 4
54 13 2
54 14 3
54 15 3
54 16 3
54 17 1
54 18 3
54 19 3
54 20 3
54 21 1
54 22 5
54 23 1
54 24 5
54 25 3
54 26 4
54 27 4
54 28 5
54 29 4
54 30 5
54 31 3
54 32 4
54 33 2
54 34 1
54 35 4
54 36 5
54 37 1
54 38 1
54 39 5
54 40 2
54 41 3
54 42 2
54 43 2
54 44 5
54 45 3
54 46 3
54 47 4
54 48 3
54 49 3
54 50 4
54 51 3
54 52 3
54 53 3
55 0 5
55 1 4
55 2 2
55 3 3
55 4 1
55 5 3
55 6 2
55 7 2
55 8 5
55 9 4
55 10 2
55 11 4
55 12 5
55 13 3
55 14 1
55 15 3
55 16 4
55 17 2
55 18 5
55 19 5
55 20 4
55 21 4
55 22 3
55 23 4
55 24 2
55 25 4
55 26 4
55 27 2
55 28 3
55 29 1
55 30 4
55 31 4
55 32 4
55 33 5
55 34 2
55 35 2
55 36 3
55 37 5
55 38 5
55 39 5
55 40 2
55 41 5
55 42 1
55 43 5
55 44 1
55 45 4
55 46 3
55 47 1
55 48 2
55 49 1
55 50 1
55 51 3
55 52 1
55 53 4
55 54 5
56 0 5
56 1 1
56 2 3
56 3 2
56 4 3
56 5 5
56 6 1
56 7 4
56 8 1
56 9 1
56 10 4
56 11 5
56 12 3
56 13 2
56 14 2
56 15 1
56 16 3
56 17 1
56 18 4
56 19 2
56 20 2
56 21 5
56 22 1
56 23 1
56 24 3
56 25 1
56 26 2
56 27 1
56 28 4
56 29 5
56 30 5
56 31 5
56 32 5
56 33 1
56 34 4
56 35 1
56 36 5
56 37 4
56 38 2
56 39 5
56 40 4
56 41 5
56 42 5
56 43 1
56 44 5
56 45 1
56 46 1
56 47 5
56 48 3
56 49 1
56 50 1
56 51 3
56 52 2
56 53 3
56 54 3
56 55 4
57 0 2
57 1 3
57 2 1
57 3 2
57 4 5
57 5 2
57 6 4
57 7 3
57 8 3
57 9 5
57 10 1
57 11 1
57 12 4
57 13 5
57 14 2
57 15 2
57 16 4
57 17 4
57 18 2
57 19 4
57 20 3
57 21 4
57 22 2
57 23 4
57 24 3
57 25 4
57 26 2
57 27 2
57 28 2
57 29 4
57 30 3
57 31 1
57 32 3
57 33 3
57 34 1
57 35 3
57 36 1
57 37 5
57 38 4
57 39 3
57 40 4
57 41 3
57 42 1
57 43 4
57 44 5
57 45 2
57 46 5
57 47 4
57 48 4
57 49 4
57 50 3
57 51 1
57 52 4
57 53 5
57 54 1
57 55 4
57 56 4
58 0 3
58 1 1
58 2 2
58 3 4
58 4 4
58 5 5
58 6 5
58 7 1
58 8 3
58 9 3
58 10 2
58 11 2
58 12 4
58 13 4
58 14 2
58 15 4
58 16 4
58 17 5
58 18 2
58 19 3
58 20 2
58 21 5
58 22 3
58 23 1
58 24 4
58 25 4
58 26 3
58 27 5
58 28 5
58 29 5
58 30 1
58 31 2
58 32 5
58 33 2
58 34 4
58 35 1
58 36 1
58 37 1
58 38 3
58 39 4
58 40 3
58 41 2
58 42 1
58 43 3
58 44 5
58 45 2
58 46 2
58 47 2
58 48 1
58 49 4
58 50 4
58 51 3
58 52 3
58 53 2
58 54 3
58 55 5
58 56 2
58 57 5
59 0 3
59 1 4
59 2 3
59 3 5
59 4 3
59 5 1
59 6 1
59 7 5
59 8 4
59 9 5
59 10 5
59 11 4
59 12 1
59 13 2
59 14 1
59 15 5
59 16 5
59 17 1
59 18 5
59 19 1
59 20 4
59 21 3
59 22 5
59 23 4
59 24 2
59 25 1
59 26 1
59 27 2
59 28 1
59 29 1
59 30 5
59 31 5
59 32 5
59 33 3
59 34 1
59 35 5
59 36 5
59 37 2
59 38 1
59 39 5
59 40 1
59 41 2
59 42 3
59 43 5
59 44 2
59 45 2
59 46 3
59 47 3
59 48 3
59 49 4
59 50 2
59 51 1
59 52 3
59 53 2
59 54 2
59 55 1
59 56 3
59 57 4
59 58 3
60 0 4
60 1 4
60 2 4
60 3 5
60 4 2
60 5 1
60 6 4
60 7 5
60 8 5
60 9 5
60 10 4
60 11 4
60 12 2
60 13 2
60 14 2
60 15 5
60 16 4
60 17 3
60 18 3
60 19 4
60 20 5
60 21 2
60 22 4
60 23 3
60 24 5
60 25 5
60 26 1
60 27 5
60 28 2
60 29 3
60 30 3
60 31 3
60 32 3
60 33 1
60 34 4
60 35 3
60 36 3
60 37 3
60 38 1
60 39 3
60 40 2
60 41 2
60 42 1
60 43 5
60 44 4
60 45 1
60 46 1
60 47 4
60 48 3
60 49 2
60 50 3
60 51 4
60 52 3
60 53 4
60 54 5
60 55 5
60 56 3
60 57 1
60 58 5
60 59 2
61 0 3
61 1 3
61 2 5
61 3 3
61 4 1
61 5 2
61 6 1
61 7 1
61 8 1
61 9 1
61 10 3
61 11 5
61 12 3
61 13 1
61 14 5
61 15 5
61 16 3
61 17 5
61 18 1
61 19 3
61 20 4
61 21 4
61 22 4
61 23 3
61 24 4
61 25 4
61 26 5
61 27 3
61 28 5
61 29 3
61 30 2
61 31 1
61 32 5
61 33 3
61 34 2
61 35 1
61 36 3
61 37 2
61 38 1
61 39 1
61 40 4
61 41 1
61 42 1
61 43 4
61 44 4
61 45 3
61 46 2
61 47 5
61 48 1
61 49 1
61 50 2
61 51 1
61 52 3
61 53 5
61 54 1
61 55 3
61 56 4
61 57 4
61 58 1
61 59 4
61 60 2
62 0 1
62 1 3
62 2 5
62 3 2
62 4 1
62 5 2
62 6 2
62 7 3
62 8 4
62 9 1
62 10 3
62 11 1
62 12 3
62 13 4
62 14 2
62 15 5
62 16 5
62 17 5
62 18 4
62 19 5
62 20 4
62 21 5
62 22 4
62 23 5
62 24 1
62 25 5
62 26 5
62 27 3
62 28 4
62 29 3
62 30 3
62 31 3
62 32 3
62 33 2
62 34 2
62 35 3
62 36 1
62 37 3
62 38 4
62 39 2
62 40 3
62 41 5
62 42 4
62 43 2
62 44 3
62 45 3
62 46 4
62 47 1
62 48 2
62 49 4
62 50 3
62 51 2
62 52 4
62 53 1
62 54 5
62 55 5
62 56 1
62 57 4
62 58 3
62 59 1
62 60 3
62 61 4
63 0 2
63 1 1
63 2 2
63 3 1
63 4 2
63 5 2
63 6 4
63 7 1
63 8 5
63 9 1
63 10 4
63 11 4
63 12 2
63 13 4
63 14 2
63 15 4
63 16 4
63 17 4
63 18 4
63 19 1
63 20 5
63 21 3
63 22 4
63 23 1
63 24 5
63 25 5
63 26 4
63 27 2
63 28 4
63 29 1
63 30 2
63 31 2
63 32 2
63 33 1
63 34 1
63 35 5
63 36 4
63 37 3
63 38 4
63 39 4
63 40 4
63 41 1
63 42 4
63 43 4
63 44 1
63 45 4
63 46 1
63 47 1
63 48 1
63 49 5
63 50 4
63 51 2
63 52 4
63 53 2
63 54 3
63 55 5
63 56 4
63 57 4
63 58 3
63 59 4
63 60 5
63 61 2
63 62 2
64 0 5
64 1 3
64 2 2
64 3 3
64 4 4
64 5 5
64 6 2
64 7 1
64 8 2
64 9 4
64 10 5
64 11 5
64 12 3
64 13 5
64 14 3
64 15 1
64 16 1
64 17 4
64 18 3
64 19 5
64 20 3
64 21 3
64 22 3
64 23 2
64 24 4
64 25 5
64 26 1
64 27 1
64 28 1
64 29 1
64 30 5
64 31 3
64 32 3
64 33 4
64 34 5
64 35 2
64 36 2
64 37 4
64 38 4
64 39 1
64 40 4
64 41 5
64 42 3
64 43 4
64 44 3
64 45 5
64 46 5
64 47 5
64 48 4
64 49 5
64 50 5
64 51 1
64 52 1
64 53 2
64 54 3
64 55 5
64 56 1
64 57 1
64 58 3
64 59 2
64 60 2
64 61 3
64 62 3
64 63 5
